500
400
280
280
280
280
279
278
278
278
277
277
277
277
277
276
275
275
274
274
274
274
272
272
271
271
270
270
270
270
269
269
269
269
269
269
268
268
268
267
267
267
267
267
267
267
267
266
265
264
263
262
262
262
262
261
261
261
261
260
260
260
259
259
259
259
257
257
256
256
256
255
255
255
254
253
252
252
252
251
251
251
250
250
250
250
250
249
248
248
247
247
247
246
246
246
246
245
245
245
245
244
243
243
243
242
242
241
240
239
238
238
238
238
238
237
236
236
236
235
235
234
234
233
232
231
230
230
229
229
229
229
229
228
228
228
227
227
226
226
226
226
225
225
225
224
223
223
223
222
222
220
220
219
217
217
217
216
216
216
216
215
215
214
214
214
214
214
213
213
212
212
212
212
211
211
211
211
210
210
209
209
208
208
208
207
207
207
207
207
206
205
205
205
205
205
205
204
204
204
204
202
201
200
200
200
200
199
198
196
195
195
195
194
194
194
194
194
193
193
192
192
191
191
191
191
191
190
190
189
189
188
188
188
187
187
185
185
185
184
183
183
180
180
178
178
178
178
178
177
177
177
176
176
175
174
174
173
173
173
173
172
171
171
171
170
170
168
168
168
168
167
167
167
166
166
165
164
164
164
162
162
162
161
161
160
160
160
159
158
158
157
157
157
157
155
154
154
154
154
153
153
153
153
152
152
152
152
151
151
151
151
150
149
149
149
149
148
148
148
147
147
146
146
146
146
144
144
144
144
143
143
142
142
142
142
141
140
140
139
139
139
138
137
137
137
137
137
137
136
136
136
136
135
135
134
133
133
132
132
132
132
131
131
131
130
130
129
129
129
128
128
127
127
127
127
127
127
126
126
126
126
126
126
126
125
125
125
125
124
124
124
123
122
122
122
121
121
120
120
120
119
118
116
116
116
115
115
115
115
113
112
112
111
111
111
111
110
110
109
109
108
108
108
108
108
107
107
107
107
106
106
106
106
105
104
104
104
103
102
102
102
101
100
100
99
99
99
99
99
99
98
98
97
97
97
97
96
96
96
96
96
94
94
94
94
93
93
92
92
92
92
92
91
90
90
90
89
88
88
87
87
87
87
86
85
85
84
84
84
84
83
83
83
82
82
82
81
81
81
81
80
